param n := 120;
param c := 10000
param : V : p w :=
   0	 443	 433
   1	 270	 260
   2	 317	 307
   3	 503	 493
   4	 262	 252
   5	 265	 255
   6	 425	 415
   7	 290	 280
   8	 315	 305
   9	 467	 457
  10	 263	 253
  11	 300	 290
  12	 501	 491
  13	 261	 251
  14	 268	 258
  15	 385	 375
  16	 264	 254
  17	 381	 371
  18	 412	 402
  19	 299	 289
  20	 319	 309
  21	 420	 410
  22	 285	 275
  23	 325	 315
  24	 403	 393
  25	 285	 275
  26	 342	 332
  27	 472	 462
  28	 269	 259
  29	 289	 279
  30	 424	 414
  31	 264	 254
  32	 342	 332
  33	 365	 355
  34	 322	 312
  35	 343	 333
  36	 484	 474
  37	 268	 258
  38	 278	 268
  39	 430	 420
  40	 292	 282
  41	 308	 298
  42	 463	 453
  43	 282	 272
  44	 285	 275
  45	 418	 408
  46	 299	 289
  47	 313	 303
  48	 421	 411
  49	 270	 260
  50	 339	 329
  51	 373	 363
  52	 313	 303
  53	 344	 334
  54	 457	 447
  55	 265	 255
  56	 308	 298
  57	 481	 471
  58	 266	 256
  59	 283	 273
  60	 509	 499
  61	 260	 250
  62	 261	 251
  63	 434	 424
  64	 287	 277
  65	 309	 299
  66	 475	 465
  67	 267	 257
  68	 288	 278
  69	 383	 373
  70	 279	 269
  71	 368	 358
  72	 504	 494
  73	 260	 250
  74	 266	 256
  75	 423	 413
  76	 291	 281
  77	 316	 306
  78	 472	 462
  79	 267	 257
  80	 291	 281
  81	 445	 435
  82	 290	 280
  83	 295	 285
  84	 490	 480
  85	 260	 250
  86	 280	 270
  87	 399	 389
  88	 281	 271
  89	 350	 340
  90	 472	 462
  91	 264	 254
  92	 294	 284
  93	 479	 469
  94	 269	 259
  95	 282	 272
  96	 361	 351
  97	 301	 291
  98	 368	 358
  99	 399	 389
 100	 278	 268
 101	 353	 343
 102	 393	 383
 103	 292	 282
 104	 345	 335
 105	 404	 394
 106	 298	 288
 107	 328	 318
 108	 403	 393
 109	 268	 258
 110	 359	 349
 111	 492	 482
 112	 267	 257
 113	 271	 261
 114	 373	 363
 115	 292	 282
 116	 365	 355
 117	 433	 423
 118	 274	 264
 119	 323	 313
;

set E :=
   0	  10
   0	  18
   0	  19
   0	  21
   0	  27
   0	  29
   0	  46
   0	  51
   0	  58
   0	  65
   0	  76
   0	  88
   0	  89
   0	  90
   0	  94
   0	  95
   0	 110
   0	 113
   0	 114
   0	 117
   0	 119
   1	   7
   1	  13
   1	  14
   1	  37
   1	  39
   1	  65
   1	  73
   1	  74
   1	  77
   1	  78
   1	  80
   1	  92
   1	 102
   1	 103
   1	 113
   1	 116
   2	   4
   2	   6
   2	  13
   2	  14
   2	  18
   2	  27
   2	  28
   2	  32
   2	  37
   2	  44
   2	  45
   2	  47
   2	  48
   2	  63
   2	  66
   2	  73
   2	  76
   2	  79
   2	  82
   2	  85
   2	  86
   2	  90
   2	  99
   2	 110
   3	   4
   3	   9
   3	  11
   3	  14
   3	  18
   3	  22
   3	  33
   3	  35
   3	  49
   3	  57
   3	  62
   3	  66
   3	  67
   3	  78
   3	  80
   3	  84
   3	  85
   3	  86
   3	  93
   3	  97
   3	  98
   3	 105
   3	 107
   3	 112
   4	   9
   4	  12
   4	  16
   4	  28
   4	  34
   4	  35
   4	  36
   4	  38
   4	  39
   4	  49
   4	  54
   4	  61
   4	  70
   4	  74
   4	  75
   4	  81
   4	  87
   4	  88
   4	  94
   4	  96
   4	 106
   4	 112
   5	  10
   5	  14
   5	  19
   5	  21
   5	  24
   5	  32
   5	  33
   5	  40
   5	  44
   5	  45
   5	  46
   5	  54
   5	  60
   5	  75
   5	  76
   5	  79
   5	  83
   5	  92
   5	 102
   5	 107
   5	 108
   6	  18
   6	  22
   6	  25
   6	  32
   6	  34
   6	  38
   6	  40
   6	  41
   6	  45
   6	  46
   6	  49
   6	  50
   6	  51
   6	  55
   6	  58
   6	  64
   6	  69
   6	  70
   6	  73
   6	  77
   6	  93
   6	  96
   6	  98
   6	 106
   6	 112
   6	 114
   7	  18
   7	  34
   7	  35
   7	  42
   7	  50
   7	  52
   7	  54
   7	  56
   7	  58
   7	  59
   7	  60
   7	  61
   7	  72
   7	  74
   7	  80
   7	  81
   7	  82
   7	  87
   7	  88
   7	  89
   7	  93
   7	  95
   7	 102
   7	 111
   7	 116
   8	  13
   8	  14
   8	  24
   8	  26
   8	  30
   8	  31
   8	  33
   8	  42
   8	  43
   8	  55
   8	  56
   8	  67
   8	  68
   8	  74
   8	  75
   8	  83
   8	  85
   8	  88
   8	  92
   8	  93
   8	  95
   8	 101
   8	 103
   8	 106
   8	 112
   8	 116
   9	  11
   9	  29
   9	  32
   9	  41
   9	  45
   9	  53
   9	  67
   9	  69
   9	  77
   9	  86
   9	  88
   9	  94
   9	  97
   9	 105
   9	 107
   9	 112
  10	  12
  10	  19
  10	  22
  10	  38
  10	  40
  10	  46
  10	  55
  10	  58
  10	  59
  10	  63
  10	  64
  10	  74
  10	  82
  10	  89
  10	 100
  10	 106
  10	 112
  10	 114
  10	 119
  11	  16
  11	  18
  11	  22
  11	  23
  11	  24
  11	  28
  11	  30
  11	  31
  11	  35
  11	  36
  11	  40
  11	  45
  11	  50
  11	  69
  11	  72
  11	  79
  11	  88
  11	  91
  11	 100
  11	 102
  11	 118
  12	  14
  12	  32
  12	  33
  12	  35
  12	  47
  12	  55
  12	  60
  12	  75
  12	  78
  12	  81
  12	  85
  12	  91
  12	  93
  12	  97
  12	  99
  12	 103
  12	 114
  12	 116
  13	  29
  13	  32
  13	  43
  13	  48
  13	  49
  13	  50
  13	  51
  13	  52
  13	  53
  13	  56
  13	  57
  13	  58
  13	  77
  13	  78
  13	  95
  13	  98
  13	 110
  13	 117
  14	  18
  14	  19
  14	  22
  14	  27
  14	  28
  14	  29
  14	  31
  14	  33
  14	  46
  14	  47
  14	  48
  14	  53
  14	  58
  14	  59
  14	  65
  14	  67
  14	  69
  14	  72
  14	  73
  14	  84
  14	  98
  14	 102
  14	 104
  14	 113
  15	  18
  15	  25
  15	  36
  15	  44
  15	  51
  15	  56
  15	  59
  15	  62
  15	  66
  15	  71
  15	  72
  15	  76
  15	  77
  15	  83
  15	  85
  15	  91
  15	  98
  15	 103
  15	 104
  15	 112
  16	  18
  16	  19
  16	  25
  16	  26
  16	  33
  16	  37
  16	  43
  16	  47
  16	  53
  16	  61
  16	  63
  16	  65
  16	  82
  16	  85
  16	  87
  16	  91
  16	  96
  16	 111
  16	 117
  17	  18
  17	  26
  17	  29
  17	  30
  17	  40
  17	  41
  17	  44
  17	  45
  17	  46
  17	  50
  17	  51
  17	  62
  17	  66
  17	  67
  17	  69
  17	  75
  17	  76
  17	  83
  17	  84
  17	  86
  17	  88
  17	  89
  17	  95
  17	  96
  17	 102
  17	 107
  17	 113
  17	 118
  17	 119
  18	  20
  18	  27
  18	  36
  18	  40
  18	  41
  18	  42
  18	  49
  18	  50
  18	  52
  18	  53
  18	  57
  18	  58
  18	  63
  18	  68
  18	  80
  18	  92
  18	  94
  18	  95
  18	  98
  18	 100
  18	 101
  18	 103
  18	 106
  18	 110
  18	 117
  18	 118
  19	  21
  19	  23
  19	  29
  19	  35
  19	  44
  19	  53
  19	  61
  19	  68
  19	  82
  19	  90
  19	  93
  19	  94
  19	  95
  19	 106
  19	 112
  19	 114
  20	  28
  20	  31
  20	  34
  20	  35
  20	  37
  20	  43
  20	  44
  20	  48
  20	  51
  20	  61
  20	  66
  20	  67
  20	  70
  20	  80
  20	  91
  20	  95
  20	  98
  20	 100
  20	 103
  20	 104
  20	 108
  20	 109
  20	 110
  20	 111
  20	 116
  21	  22
  21	  24
  21	  25
  21	  26
  21	  28
  21	  29
  21	  30
  21	  34
  21	  45
  21	  47
  21	  52
  21	  53
  21	  54
  21	  55
  21	  62
  21	  68
  21	  79
  21	  86
  21	  91
  21	  92
  21	  94
  21	 100
  21	 108
  22	  24
  22	  27
  22	  29
  22	  30
  22	  32
  22	  37
  22	  43
  22	  58
  22	  63
  22	  66
  22	  70
  22	  73
  22	  75
  22	  77
  22	  78
  22	  81
  22	  84
  22	  89
  22	  93
  22	  95
  22	 102
  22	 103
  22	 109
  22	 111
  23	  25
  23	  42
  23	  46
  23	  47
  23	  56
  23	  57
  23	  62
  23	  64
  23	  68
  23	  69
  23	  71
  23	  73
  23	  75
  23	  77
  23	  87
  23	  94
  23	  97
  23	 101
  23	 112
  23	 113
  23	 114
  23	 117
  24	  33
  24	  37
  24	  38
  24	  41
  24	  46
  24	  50
  24	  51
  24	  55
  24	  71
  24	  72
  24	  86
  24	  97
  24	 103
  24	 108
  24	 110
  24	 116
  24	 119
  25	  26
  25	  28
  25	  30
  25	  32
  25	  42
  25	  43
  25	  47
  25	  50
  25	  60
  25	  67
  25	  69
  25	  83
  25	  84
  25	  85
  25	  87
  25	  93
  25	  96
  25	  97
  25	  98
  25	 107
  25	 108
  25	 110
  25	 112
  25	 113
  25	 117
  26	  41
  26	  46
  26	  51
  26	  62
  26	  70
  26	  74
  26	  75
  26	  81
  26	  86
  26	  90
  26	  94
  26	 101
  26	 111
  27	  31
  27	  32
  27	  34
  27	  42
  27	  49
  27	  58
  27	  59
  27	  63
  27	  64
  27	  65
  27	  70
  27	  72
  27	  77
  27	  79
  27	  83
  27	 113
  27	 117
  28	  34
  28	  51
  28	  52
  28	  56
  28	  60
  28	  71
  28	  74
  28	  76
  28	  79
  28	  82
  28	  86
  28	  91
  28	  92
  28	  93
  28	  94
  28	  98
  28	  99
  28	 109
  28	 110
  28	 112
  28	 113
  29	  35
  29	  37
  29	  38
  29	  51
  29	  56
  29	  58
  29	  73
  29	  83
  29	  84
  29	  97
  29	 111
  29	 114
  29	 115
  30	  34
  30	  37
  30	  38
  30	  42
  30	  49
  30	  53
  30	  55
  30	  69
  30	  71
  30	  88
  30	  90
  30	  95
  30	  98
  30	  99
  30	 102
  30	 104
  30	 109
  30	 110
  30	 114
  31	  32
  31	  37
  31	  39
  31	  41
  31	  47
  31	  73
  31	  84
  31	 104
  31	 108
  32	  33
  32	  47
  32	  48
  32	  58
  32	  65
  32	  66
  32	  67
  32	  75
  32	  81
  32	  86
  32	  87
  32	  88
  32	  89
  32	 100
  32	 101
  32	 104
  32	 107
  32	 108
  32	 114
  33	  44
  33	  47
  33	  52
  33	  60
  33	  65
  33	  66
  33	  78
  33	  82
  33	  94
  33	 101
  33	 105
  34	  37
  34	  43
  34	  45
  34	  55
  34	  57
  34	  60
  34	  66
  34	  71
  34	  76
  34	  85
  34	  86
  34	  93
  34	  95
  34	  96
  34	  99
  34	 102
  34	 104
  34	 114
  34	 117
  35	  40
  35	  41
  35	  50
  35	  51
  35	  60
  35	  64
  35	  80
  35	  88
  35	  94
  35	  95
  35	 101
  35	 103
  35	 104
  35	 105
  35	 114
  36	  38
  36	  51
  36	  52
  36	  53
  36	  56
  36	  61
  36	  63
  36	  64
  36	  65
  36	  82
  36	  87
  36	  90
  36	  97
  36	 107
  36	 108
  36	 117
  36	 119
  37	  40
  37	  48
  37	  57
  37	  58
  37	  68
  37	  70
  37	  73
  37	  78
  37	  79
  37	  84
  37	  90
  37	 101
  37	 109
  37	 110
  37	 112
  37	 113
  37	 114
  37	 119
  38	  39
  38	  49
  38	  56
  38	  61
  38	  66
  38	  76
  38	  78
  38	  82
  38	  88
  38	  92
  38	  99
  38	 100
  38	 102
  38	 104
  38	 105
  38	 106
  38	 109
  38	 111
  38	 114
  38	 115
  38	 117
  38	 118
  39	  46
  39	  71
  39	  73
  39	  77
  39	  82
  39	  87
  39	  92
  39	  94
  39	  97
  39	  98
  39	 104
  40	  43
  40	  44
  40	  51
  40	  58
  40	  62
  40	  74
  40	  82
  40	  86
  40	  87
  40	  93
  40	  94
  40	 100
  40	 101
  40	 106
  40	 107
  40	 114
  40	 115
  41	  44
  41	  49
  41	  63
  41	  64
  41	  76
  41	  79
  41	  83
  41	  84
  41	  92
  41	  98
  41	 100
  41	 105
  41	 110
  41	 111
  42	  46
  42	  48
  42	  50
  42	  58
  42	  60
  42	  63
  42	  69
  42	  70
  42	  76
  42	  81
  42	  84
  42	  88
  42	  89
  42	  95
  42	  98
  42	 104
  42	 112
  42	 115
  42	 118
  43	  58
  43	  66
  43	  69
  43	  71
  43	  85
  43	  87
  43	  95
  43	  99
  43	 102
  43	 104
  43	 113
  43	 116
  44	  50
  44	  51
  44	  54
  44	  55
  44	  58
  44	  64
  44	  66
  44	  67
  44	  75
  44	  84
  44	  93
  44	  98
  44	  99
  44	 100
  44	 102
  44	 103
  44	 105
  44	 106
  45	  49
  45	  55
  45	  72
  45	  76
  45	  78
  45	  80
  45	  87
  45	  91
  45	  94
  45	  97
  45	 100
  45	 103
  45	 107
  45	 114
  45	 116
  45	 118
  46	  49
  46	  51
  46	  53
  46	  63
  46	  65
  46	  70
  46	  78
  46	  81
  46	  83
  46	  86
  46	  90
  46	  94
  46	  97
  46	 109
  47	  48
  47	  51
  47	  52
  47	  58
  47	  60
  47	  64
  47	  69
  47	  71
  47	  75
  47	  79
  47	  83
  47	  90
  47	  92
  47	  94
  47	  97
  47	 108
  47	 112
  48	  49
  48	  52
  48	  56
  48	  57
  48	  62
  48	  65
  48	  67
  48	  81
  48	  82
  48	  83
  48	  88
  48	  89
  48	  94
  48	  97
  48	 100
  48	 105
  48	 107
  48	 115
  48	 118
  49	  67
  49	  73
  49	  83
  49	  86
  49	  92
  49	 103
  49	 105
  49	 107
  49	 110
  49	 116
  50	  55
  50	  57
  50	  63
  50	  64
  50	  65
  50	  70
  50	  73
  50	  86
  50	  87
  50	  92
  50	  95
  50	  96
  50	  97
  50	  99
  50	 109
  51	  53
  51	  56
  51	  59
  51	  63
  51	  67
  51	  78
  51	  89
  51	  91
  51	  96
  51	  97
  51	  98
  51	  99
  51	 106
  51	 107
  51	 109
  51	 110
  51	 115
  51	 117
  52	  53
  52	  63
  52	  64
  52	  65
  52	  74
  52	 107
  52	 117
  53	  55
  53	  56
  53	  61
  53	  66
  53	  74
  53	  80
  53	  81
  53	  84
  53	  87
  53	  89
  53	  92
  53	  96
  53	 101
  53	 107
  53	 110
  53	 111
  54	  58
  54	  61
  54	  63
  54	  64
  54	  65
  54	  68
  54	  76
  54	  78
  54	  87
  54	  91
  54	  93
  54	 104
  54	 110
  54	 115
  55	  56
  55	  58
  55	  60
  55	  66
  55	  71
  55	  72
  55	  81
  55	  83
  55	  84
  55	  88
  55	  95
  55	  99
  55	 103
  55	 105
  56	  66
  56	  67
  56	  76
  56	  93
  56	  97
  56	  98
  56	 105
  56	 117
  56	 118
  56	 119
  57	  64
  57	  67
  57	  71
  57	  79
  57	  82
  57	  84
  57	  86
  57	  90
  57	  91
  57	  92
  57	  93
  57	  94
  57	  98
  57	 107
  57	 117
  58	  60
  58	  61
  58	  65
  58	  72
  58	  76
  58	  81
  58	  84
  58	  90
  58	  92
  58	 101
  59	  67
  59	  71
  59	  77
  59	  79
  59	  82
  59	  83
  59	  85
  59	  90
  59	  94
  59	  99
  59	 101
  59	 109
  59	 110
  59	 111
  60	  63
  60	  65
  60	  70
  60	  89
  60	  96
  60	 106
  60	 116
  60	 118
  61	  69
  61	  80
  61	  81
  61	  85
  61	  90
  61	  91
  61	 100
  61	 101
  61	 103
  61	 105
  61	 114
  62	  63
  62	  67
  62	  70
  62	  73
  62	  74
  62	  75
  62	  78
  62	  84
  62	  85
  62	  87
  62	  89
  62	  90
  62	  99
  62	 100
  62	 101
  62	 102
  62	 114
  63	  67
  63	  75
  63	  78
  63	  90
  63	  92
  64	  68
  64	  70
  64	  83
  64	  92
  64	  93
  64	  96
  64	 100
  64	 102
  64	 104
  64	 118
  65	  67
  65	  71
  65	  72
  65	  77
  65	  81
  65	  92
  65	  98
  65	 101
  65	 105
  65	 107
  65	 110
  65	 116
  66	  76
  66	  85
  66	  92
  66	  93
  66	  96
  66	 104
  66	 113
  67	  69
  67	  70
  67	  71
  67	  74
  67	  77
  67	  78
  67	  81
  67	  92
  67	  95
  67	  97
  67	 110
  67	 113
  68	  73
  68	  75
  68	  92
  68	  95
  68	  98
  68	 102
  68	 106
  68	 113
  68	 115
  69	  70
  69	  73
  69	  74
  69	  81
  69	  84
  69	  88
  69	  91
  69	  92
  69	  96
  69	 101
  69	 103
  69	 108
  69	 109
  69	 113
  69	 119
  70	  82
  70	  88
  70	  93
  70	  95
  70	 101
  70	 102
  70	 103
  70	 110
  70	 112
  70	 119
  71	  75
  71	  83
  71	 103
  71	 115
  72	  74
  72	  88
  72	  89
  72	  90
  72	  91
  72	  92
  72	  93
  72	  94
  72	  99
  72	 100
  72	 103
  72	 105
  72	 107
  72	 111
  72	 115
  72	 117
  72	 118
  72	 119
  73	  81
  73	  83
  73	  90
  73	  91
  73	  94
  73	  99
  73	 104
  73	 105
  73	 108
  73	 110
  73	 111
  73	 114
  73	 119
  74	  75
  74	  76
  74	  95
  74	 113
  75	  76
  75	  81
  75	  90
  75	 102
  75	 117
  76	  77
  76	  79
  76	  80
  76	  85
  76	  88
  76	  91
  76	  97
  76	 106
  76	 107
  76	 109
  76	 115
  77	  78
  77	  79
  77	  81
  77	  92
  77	  99
  77	 101
  77	 102
  77	 103
  77	 104
  77	 105
  77	 107
  78	  87
  78	  91
  78	  94
  78	  95
  78	  96
  78	 100
  78	 106
  78	 107
  78	 115
  78	 117
  79	  86
  79	  90
  79	  93
  79	 100
  79	 105
  80	  81
  80	  86
  80	  88
  80	  90
  80	  96
  80	 105
  80	 109
  80	 112
  80	 115
  81	  84
  81	  90
  81	  93
  81	 100
  81	 115
  82	  85
  82	  91
  82	  92
  82	  94
  82	  96
  82	  97
  82	  98
  82	 109
  82	 115
  83	  84
  83	  88
  83	  89
  83	  90
  83	  93
  83	  94
  83	  95
  83	  97
  83	 106
  83	 108
  83	 109
  83	 113
  84	  95
  84	 106
  84	 107
  84	 109
  84	 114
  84	 116
  85	  91
  85	  95
  85	 103
  85	 108
  86	  87
  86	  92
  86	  93
  86	 112
  86	 118
  87	  96
  87	  98
  87	 105
  87	 106
  87	 107
  87	 109
  87	 113
  88	  91
  88	 101
  88	 114
  89	  91
  89	  92
  89	 108
  89	 109
  90	 105
  90	 110
  90	 111
  90	 114
  91	  94
  91	  97
  91	  99
  91	 102
  91	 112
  91	 114
  92	  98
  92	 101
  92	 104
  92	 105
  92	 113
  93	  99
  93	 100
  93	 103
  93	 104
  93	 107
  93	 109
  93	 112
  93	 118
  93	 119
  94	  99
  94	 103
  94	 105
  94	 107
  94	 108
  94	 110
  94	 112
  95	 101
  95	 103
  95	 110
  95	 113
  95	 115
  96	 101
  96	 103
  96	 104
  96	 105
  96	 106
  96	 111
  96	 118
  97	  99
  97	 101
  97	 102
  97	 103
  97	 106
  97	 109
  97	 114
  97	 116
  97	 117
  98	 100
  98	 101
  98	 112
  99	 100
  99	 106
  99	 109
  99	 111
  99	 112
  99	 117
 100	 107
 100	 108
 100	 110
 100	 119
 101	 105
 101	 119
 102	 103
 102	 105
 102	 110
 102	 119
 103	 108
 103	 114
 104	 107
 104	 109
 104	 114
 104	 117
 105	 108
 105	 112
 105	 113
 106	 109
 106	 116
 107	 116
 107	 119
 108	 111
 108	 115
 108	 118
 109	 116
 110	 111
 111	 112
 111	 116
 111	 118
 111	 119
 112	 114
 112	 117
 112	 118
 113	 114
 113	 117
 113	 119
;
